# Solution for model r3_t9_m6_2
# Finished Task: 9 / 9
# Makespan: 468.0, Total Distance: 505.0, Total Time: 0.0787
# R O S F
0 0 5 0.0 0.0
1 1 3 0.0 0.0
2 2 11 0.0 0.0
3 1 10 69.0 99.0
4 0 8 410.0 432.0
5 0 9 67.0 96.0
6 0 4 382.0 410.0
7 2 -1 410.0 430.0
8 0 -1 448.0 468.0
9 0 6 261.0 298.0
10 1 -1 384.0 417.0
11 2 7 93.0 126.0
